100
[10,11,12,13,14,15,16,17,18,19,20,21,22,23,24,25,26,27,28,29,30,31,32,33,34,35,36,37,38,39,40,41,42,43,44,45,46,47,48,49,50,51,52,53,54,55,56,57,58,59,60,61,62,63,64,65,66,67,68,69,70]
[4,8,4,2,8,8,9,7,7,8,5,7,5,5,9,10,7,6,10,7,9,4,10,2,7,8,5,4,3,4,6,6,5,5,6,9,6,4,3,4,13,5,9,5,6,9,7,6,5,5,10,7,8,7,7,4,8,10,8,7,8]
